db/data/6645155901000658481938929754136424444.z3.out
-------------------
2500.114811956
